(set-logic QF_SLIA)
(declare-fun var0 () String)
(assert (str.in_re var0 (re.++ ((_ re.loop 17 333) (re.++ (re.union (str.to_re "?*M") (re.union (str.to_re "/!_") (re.union (str.to_re ":") (str.to_re ".}")))) (re.++ (re.union (str.to_re "C") (re.union (str.to_re "$Vz") (re.union (str.to_re "^tr") (str.to_re "(8")))) (re.++ (re.union (str.to_re "o") (re.union (str.to_re "@") (re.union (str.to_re "xaH") (str.to_re "yQ")))) (re.union (str.to_re "uB") (re.union (str.to_re "T'N") (re.union (str.to_re "]kS") (str.to_re ";y<")))))))) (re.++ ((_ re.loop 10 411) (re.++ (re.union (str.to_re "M") (re.union (str.to_re "Y{") (re.union (str.to_re "a") (str.to_re "%gT")))) (re.++ (re.union (str.to_re "D\\") (re.union (str.to_re "F") (re.union (str.to_re "+LY") (str.to_re "t=T")))) (re.++ (re.union (str.to_re "@6+") (re.union (str.to_re ":%&") (re.union (str.to_re "}w}") (str.to_re "Y;")))) (re.union (str.to_re "8\\p") (re.union (str.to_re "=") (re.union (str.to_re "TQ") (str.to_re "1Aa")))))))) (re.++ ((_ re.loop 11 101) (re.++ (re.union (str.to_re "E") (re.union (str.to_re "D7") (re.union (str.to_re "(Ih") (str.to_re "!M")))) (re.++ (re.union (str.to_re "k") (re.union (str.to_re "\u0022") (re.union (str.to_re "r") (str.to_re "s6w")))) (re.++ (re.union (str.to_re "z;") (re.union (str.to_re "-") (re.union (str.to_re "r") (str.to_re "]")))) (re.union (str.to_re "#") (re.union (str.to_re "\u0022|") (re.union (str.to_re "*<-") (str.to_re "mXZ")))))))) ((_ re.loop 17 167) (re.++ (re.union (str.to_re "yX") (re.union (str.to_re "5") (re.union (str.to_re "N") (str.to_re "nR")))) (re.++ (re.union (str.to_re "p") (re.union (str.to_re "US_") (re.union (str.to_re "w") (str.to_re "gns")))) (re.++ (re.union (str.to_re ":2d") (re.union (str.to_re ":m\u0022") (re.union (str.to_re "y") (str.to_re "O")))) (re.union (str.to_re "x8") (re.union (str.to_re "`h;") (re.union (str.to_re "A") (str.to_re "Q")))))))))))))
(assert (not (str.in_re var0 (re.++ ((_ re.loop 9 44) (re.++ (re.union (str.to_re "Zp") (re.union (str.to_re "bjW") (re.union (str.to_re "p") (str.to_re "KlB")))) (re.++ (re.union (str.to_re "/\u0022") (re.union (str.to_re "\u0022") (re.union (str.to_re "0") (str.to_re "@")))) (re.++ (re.union (str.to_re "iK[") (re.union (str.to_re "`f}") (re.union (str.to_re "^") (str.to_re "Wf?")))) (re.union (str.to_re "se}") (re.union (str.to_re "0/") (re.union (str.to_re "Ii2") (str.to_re "hq")))))))) (re.++ ((_ re.loop 11 476) (re.++ (re.union (str.to_re "h") (re.union (str.to_re "7BU") (re.union (str.to_re "=8") (str.to_re "m")))) (re.++ (re.union (str.to_re "c") (re.union (str.to_re "kC=") (re.union (str.to_re "?|") (str.to_re "XX")))) (re.++ (re.union (str.to_re "E") (re.union (str.to_re ",") (re.union (str.to_re "i],") (str.to_re "D)Q")))) (re.union (str.to_re "z6*") (re.union (str.to_re "4Z$") (re.union (str.to_re "*") (str.to_re "q")))))))) (re.++ ((_ re.loop 11 309) (re.++ (re.union (str.to_re "UE") (re.union (str.to_re "{N=") (re.union (str.to_re "eS") (str.to_re "+")))) (re.++ (re.union (str.to_re "|") (re.union (str.to_re "q/\u0022") (re.union (str.to_re "d") (str.to_re "#4;")))) (re.++ (re.union (str.to_re "Un") (re.union (str.to_re "&2A") (re.union (str.to_re "~") (str.to_re "|#")))) (re.union (str.to_re "4`") (re.union (str.to_re "d$") (re.union (str.to_re "|") (str.to_re "vK\\")))))))) ((_ re.loop 2 427) (re.++ (re.union (str.to_re "I=]") (re.union (str.to_re "s") (re.union (str.to_re "]4") (str.to_re "Gv")))) (re.++ (re.union (str.to_re "D") (re.union (str.to_re "6&\u0022") (re.union (str.to_re "Q") (str.to_re "za")))) (re.++ (re.union (str.to_re "Kb'") (re.union (str.to_re "n") (re.union (str.to_re "U3") (str.to_re "}u")))) (re.union (str.to_re "S") (re.union (str.to_re "D") (re.union (str.to_re "1") (str.to_re "hoq"))))))))))))))
(assert (not (str.in_re var0 (re.++ (re.* re.allchar) (re.++ (re.union (str.to_re "<") (re.union (str.to_re ">") (re.union (str.to_re "'") (re.union (str.to_re "\u0022") (str.to_re "&"))))) (re.* re.allchar))))))
(assert (<= 50 (str.len var0)))
(check-sat)
(get-model)
